Mn Na O  P 
 1.0000000000000000
    10.6788072449999998    0.0000088690000000   -0.0000348580000000
    -0.0000286700000000    6.4193453619999996   -0.0000803610000000
    -0.0000165150000000    0.0000604120000000    5.0503951880000004
 Mn  Na  O   P  
   4   4  16   4
Cartesian
  3.0330900000000001  1.6049000000000002  5.0199700000000016
  2.3062700000000005  4.8145499999999997  2.4947200000000005
  7.6456600000000012  4.8145100000000003  0.0303100000000000
  8.3725000000000005  1.6048700000000002  2.5555700000000003
 10.6787713300000018  6.4193453620000005 -0.0001103610000000
  5.3394000000000013  0.0000400000000000  2.5251800000000006
 -0.0000300000000000  3.2097300000000004  5.0503499999999999
  5.3393800000000002  3.2097000000000002  2.5251400000000008
  1.2087100000000000  1.6048800000000001  3.7608400000000008
  4.1306500000000002  4.8145199999999999  1.2356200000000002
  9.4700299999999995  4.8145100000000003  1.2894500000000002
  6.5481200000000008  1.6048900000000001  3.8146600000000004
  5.0031999999999996  1.6048400000000003  0.8083200000000001
  0.3361500000000000  4.8145500000000006  3.3334899999999998
  5.6755699999999996  4.8145600000000011  4.2419600000000006
 10.3426100000000023  1.6048599999999997  1.7167700000000004
  1.8677500000000000  0.3705999999999999  1.5741000000000003
  3.4715699999999998  6.0488099999999996  4.0992300000000013
  8.8110100000000013  3.5803000000000003  3.4762100000000009
  7.2071500000000013  2.8391400000000004  0.9510300000000002
  8.8110100000000013  6.0488100000000014  3.4761800000000003
  7.2072100000000008  0.3706100000000001  0.9510500000000001
  1.8677500000000000  2.8391100000000007  1.5741000000000003
  3.4716100000000005  3.5802800000000006  4.0992499999999996
  1.1377299999999999  1.6048700000000000  2.2182400000000007
  4.2016099999999996  4.8145600000000011  4.7433900000000007
  9.5410299999999992  4.8145400000000009  2.8320399999999997
  6.4771500000000009  1.6048600000000002  0.3068900000000001
