Na Fe P  O 
 1.0000000000000000
    10.4062999999999999    0.0000000000000000    0.0000000000000000
     0.0000000000000000   18.6560999999999986    0.0000000000000000
     0.0000000000000000    0.0000000000000000    9.8938000000000006
 Na  Fe  P   O  
  23  24  24  96
Cartesian
  5.2028757025630394  0.0008910204026353  2.4737937773007097
 -0.0001832435722145  3.1096716573927288 -0.0002613896326017
  5.2035345475786929  3.1095872332224004  2.4734553330260427
 -0.0004647500505574  0.0005856785194199 -0.0009237092183687
  5.2028645864687926  0.0009531084582408  7.4207050974386188
 -0.0001804519157022  3.1097001359945278  4.9466168484443296
  5.2034034881569617  3.1084681034338928  7.4206909030139014
 -0.0004642706313542  0.0005847856521870  4.9459751586438516
  5.2028612821217841  6.2196273786409852  2.4737522393552740
 -0.0001807840550419  9.3283912679476426 -0.0002866434750685
  5.2035169282264961  9.3282719760257216  2.4733266489351426
 -0.0005218156994151  6.2193001284438152 -0.0009316335457202
 -0.0001792457231607  9.3284181517894744  4.9465921452605226
  5.2036457995369991  9.3294149346376134  7.4202425321634307
 -0.0004309452539207  6.2192625448386050  4.9460046216178482
  5.2028772462213526 12.4382834175098989  2.4737916909777238
 -0.0001797673405105 15.5470980404251478 -0.0002850352860112
  5.2035298544156499 15.5469833731046965  2.4734342242823222
 -0.0004644071934258 12.4379819157019273 -0.0009214801434142
  5.2028916075908604 12.4381955217084208  7.4206799037747535
 -0.0001797628166728 15.5470980711425533  4.9466149695584996
  5.2035298631053717 15.5469840261530372  7.4203341242548300
 -0.0004644278939219 12.4379815859533718  4.9459774944848549
  8.1763726176383642  4.6649725933871435  2.5523782833058530
  2.9744204527606324  4.6643970181581134  4.8679769017127210
  2.2295667730211917  1.5543102670561328  2.3933439767163951
  7.4337045346652211  1.5547068870499707  0.0804851331682243
  8.1737903878516320  4.6661104786993466  7.4986805137794672
  2.9738308404402463  4.6641178962221881  9.8149688661460530
  2.2295601829306464  1.5543110135277938  7.3402529937365211
  7.4336920306229199  1.5547569593625528  5.0273925812479847
  8.1763794262629901 10.8836962561230965  2.5523334771091424
  2.9742826934814475 10.8829264960765517  4.8676316654425191
  2.2295575811373434  7.7730261370998575  2.3933111464275902
  7.4335922246917487  7.7731898884845902  0.0801057444888250
  8.1763741850975080 10.8836908502743199  7.4992216688300060
  2.9743007769280001 10.8828328399500833  9.8145207683288742
  2.2322366904654176  7.7718573008999652  7.3408159551971455
  7.4341728980262571  7.7736009572449731  5.0268299461385535
  8.1763749210170715 17.1023830879859844  2.5523272336242786
  2.9742880039430246 17.1015809360153277  4.8676367746512099
  2.2295709916728641 13.9917159758989307  2.3933499132693887
  7.4337019386539680 13.9921187196239565  0.0804822854664033
  8.1763742123528402 17.1023833346846921  7.4992271890227205
  2.9742881493916329 17.1015805939134147  9.8145371847817522
  2.2295718948698440 13.9917157222780482  7.3402499291728498
  7.4337020456026925 13.9921197379704108  5.0273817940910961
  6.3315044618883549  4.6677817663904175  0.2886857731172764
  1.1296265944977724  4.6674894448552164  2.1915955360677013
  4.0784239966910221  1.5573964573134984  4.6649539684384855
  9.2822119970633672  1.5569598433898688  2.7620568077522289
  6.3333255712420264  4.6670876467824440  5.2350593433420780
  1.1295724222272987  4.6674279873527329  7.1385192955274634
  4.0784355110994897  1.5574099355049236  9.6118630939980001
  9.2822078930001286  1.5569688471407741  7.7089614958902919
  6.3319059264352857 10.8859492975006091  0.2886801872443656
  1.1296239495706575 10.8861841324409028  2.1915916440819081
  4.0788098505963974  7.7755405202974304  4.6650170671894777
  9.2822051810910455  7.7756477921761364  2.7620613039401882
  6.3319225447327350 10.8859978355350098  5.2355941404848920
  1.1296319347192654 10.8861688081958370  7.1384828345716951
  4.0776044922555670  7.7763619063282237  9.6122534044524937
  9.2822599672342569  7.7757154778100741  7.7089184849707291
  6.3319114515159685 17.1046835800202501  0.2887059140987041
  1.1296208942450985 17.1048795962047784  2.1915913716226290
  4.0784365467951309 13.9948054902375905  4.6649633856006538
  9.2822147710604348 13.9943571330048204  2.7620568130200920
  6.3319122319958625 17.1046830767979863  5.2356052692073485
  1.1296209862703304 17.1048798187909199  7.1384913296825765
  4.0784357382479923 13.9948059755351188  9.6118643673301811
  9.2822147378227076 13.9943570520538110  7.7089568630818803
  6.3888727250681301  4.6637598036040337  3.6996062717068896
  1.1849831869190433  4.6635645657991214  3.7157351924376285
  4.0175587241207316  1.5543826602128861  1.2422475383943414
  9.2198022637311414  1.5548602279391526  1.2251310954470849
 10.0700084186656600  4.6638229475197841  1.6648001507326062
  4.8678244237099468  4.6639220114589488  0.8077667796431652
  0.3311417245607375  1.5539199269200603  3.2809603120157829
  5.5356045608572293  1.5540007934537619  4.1384686798215835
  7.0490230412381107  5.8969164060990158  0.9116323176498976
  1.8485335503140969  3.4271256331640543  1.5595906676971281
  3.3562219830491071  2.7901224955286339  4.0339140413055663
  8.5582097079767330  0.3168485649451778  3.3874862578640461
  3.3548020878167359  0.3162015300224602  4.0330415303197897
  8.5596694737038401  2.7892092079290740  3.3863238228659807
  7.0510497555800882  3.4279327783503106  0.9138111909877761
  1.8465922652089208  5.8987474598257750  1.5614856099891052
  6.3951740837779996  4.6563911232744033  8.6517408671259055
  1.1851899445559975  4.6637798780583841  8.6626250947287566
  4.0176942503505408  1.5544852187090814  6.1893181435929501
  9.2197829397092406  1.5548743651191259  6.1720313577920161
 10.0698868677972726  4.6638068819865222  6.6117054526653858
  4.8655384417041283  4.6568934677631999  5.7471158647305112
  0.3311325460859402  1.5539262562417600  8.2278620669187248
  5.5355196207380084  1.5541621679463702  9.0851044845279372
  7.0396528960412370  5.8984192873004737  5.8674176481223475
  1.8485658219460277  3.4271384407667629  6.5064847071806833
  3.3562681280626485  2.7900976649665221  8.9806896422278371
  8.5582088734686828  0.3168524925285656  8.3343865078733970
  3.3548018412167515  0.3161934836701302  8.9799419516009547
  8.5596784787140798  2.7891973960380207  8.3331866610637970
  7.0508860695108631  3.4288025456589715  5.8608779088805703
  1.8452558251771531  5.8986583125902321  6.5080011188183970
  6.3889594368258740 10.8824790593341589  3.6992646910723987
  1.1849564447550971 10.8822527361700008  3.7157165380084773
  4.0176153928311713  7.7732075297273591  1.2424017387145190
  9.2198059518594633  7.7735441705775497  1.2251281100319902
 10.0700070342103540 10.8825226877833625  1.6647982515569346
  4.8677416004449272 10.8824506166847090  0.8081689199150638
  0.3311410988441694  7.7726079878301073  3.2809601098064820
  5.5354955559177110  7.7725249411209836  4.1389188731436910
  7.0492606105610376 12.1156055905905280  0.9120861744324325
  1.8485453199473005  9.6458020452903153  1.5595918826035269
  3.3562014267345330  9.0087215143918122  4.0339962363109123
  8.5581097705411064  6.5355257001971694  3.3875922687919129
  3.3550757048599014  6.5349561121031838  4.0335899471155594
  8.5596746276033304  9.0078770339904892  3.3863358889149815
  7.0510024447447543  9.6465809440992505  0.9138353518852935
  1.8465326488274487 12.1174321304717854  1.5615415884781121
  6.3888474275154374 10.8824027579176743  8.6460253917977372
  1.1849721091244969 10.8822456016097124  8.6626208750803659
  4.0111421172556341  7.7806193008665474  6.1830165010326317
  9.2195603499468266  7.7733091620508059  6.1720232181055836
 10.0700128247766916 10.8825176438942535  6.6116967288150166
  4.8678283182885123 10.8823091791038671  5.7553127422604744
  0.3312479144958197  7.7726206047776207  8.2278623756009690
  5.5373797870126120  7.7800193714730908  9.0937087462175032
  7.0492575362104111 12.1156151004745123  5.8589852264389810
  1.8484958310171127  9.6458334965640891  6.5065484448212567
  3.3563557491153437  9.0080521783631138  8.9806342652402158
  8.5594391127880325  6.5355661575128909  8.3348694873807219
  3.3642541378460171  6.5333062464327387  8.9713430207091047
  8.5596452049467064  9.0078749822147959  8.3332370885998532
  7.0509971758512959  9.6466017420190671  5.8608185019626573
  1.8465322946655596 12.1174283135846306  6.5084424568217383
  6.3889613386533242 17.1011595421729616  3.6992680485762497
  1.1849564712235998 17.1009471564822206  3.7157188034645330
  4.0175545146286646 13.9917871037760708  1.2422421958594769
  9.2198024335742179 13.9922562870897220  1.2251313225366045
 10.0700057036803496 17.1012123860079441  1.6647980309470123
  4.8677626492910919 17.1011365108435918  0.8081425193916487
  0.3311434372181064 13.9913196652656051  3.2809600711936433
  5.5355888687178645 13.9914131061363776  4.1384891310224505
  7.0492574036748703 18.3343102548477219  0.9120831971708206
  1.8485280383561715 15.8645094969620128  1.5596032881433746
  3.3561921498795995 15.2274741027508291  4.0338702863584883
  8.5582110580144857 12.7542491395783806  3.3874858690515315
  3.3548045945771756 12.7536027800368768  4.0330423472372505
  8.5596873787503753 15.2266001421853243  3.3863098342345177
  7.0510349971813806 15.8653187138092573  0.9138771262458047
  1.8465291933838563 18.3361322867182430  1.5615452927908282
  6.3889657800465356 17.1011546890872559  8.6461725393734241
  1.1849563436606676 17.1009470339625658  8.6626187366518064
  4.0175501713740678 13.9917917748530325  6.1891374753860644
  9.2198024958554168 13.9922562520295717  6.1720313745667168
 10.0700057093789823 17.1012122768910650  6.6116980773228482
  4.8677614491196683 17.1011308026805366  5.7550367184915681
  0.3311433812861303 13.9913198002374912  8.2278600756930764
  5.5355903313277546 13.9914207044808787  9.0853967861423435
  7.0492601547005442 18.3343109016073313  5.8589811894407653
  1.8485279313945584 15.8645096160364893  6.5065032821714635
  3.3561919783590550 15.2274741187878107  8.9807703760164088
  8.5582092684863973 12.7542468190454095  8.3343857790685760
  3.3548004298438658 12.7535998436296616  8.9799465222427717
  8.5596875000279002 15.2265999724678469  8.3332098124554932
  7.0510350439324876 15.8653186252152221  5.8607770646111961
  1.8465311663251449 18.3361340345630985  6.5084447988730796
