Ni Na O  P 
 1.0000000000000000
    10.2500399679999994   -0.0000112580000000   -0.0000042640000000
    -0.0000398270000000    6.1921956419999997   -0.0000792810000000
    -0.0000024810000000    0.0000574000000000    4.9742810799999999
 Ni  Na  O   P  
   4   4  16   4
Cartesian
  3.0956415131825361  1.4109905198966599  5.1150187791997341
  2.3085278621986838  4.4969823176227193  2.2105312273775080
  7.6235880362614674  4.5212115020714405 -0.1075009903906538
  8.1299878530382887  1.4423774958473468  2.7282735116462913
 -0.0870924460402801  6.1857955633074369  4.8802266562482091
  4.6077026660502840  6.7277964618035968  2.3118658905984462
  0.3355226165044244  3.1208857323802364  0.1819078591481694
  4.9507996668110010  3.0549965603556917  2.1972307168845862
  0.9112150335662805  1.6837932070730222  4.1291991537008679
  3.7479828948061047  3.8753997741503219  1.0886760010604832
  9.1061088146146432  4.2792926329932071  1.2953502437552935
  6.4078115386326528  2.0174455677729988  3.5869782534889132
  4.5645569375916653  1.6386065401828713  1.1999893150631431
  0.1935499804421504  4.8259577426508473  3.1968734474112837
  5.3907749743723370  4.9394667703569874  4.2704543218443334
  9.8606028111714412  1.7420080655439973  2.0509121307328546
  1.7257173677297637  0.3291192353343389  1.8431476557530833
  2.9273980606777066  5.6358489134953631  3.5833388715100565
  8.8428221924282191  3.1747549432653872  3.3051257871314026
  7.5770767923610993  3.2940415127111775  0.8556345291441388
  8.0996510227817939  5.4774372117544230  3.7393344502963748
  6.6162173236247881  0.3984929506447961  0.4257934493497776
  1.6519640134034546  2.8743755416877281  1.7209916062359536
  3.4049623402511919  3.6435950764630678  4.2834567376675725
  1.0894426189729198  1.8252566368457868  2.3354357841234332
  4.2678799810146506  4.4817792811079356  4.8844692454611058
  8.8256721640722908  4.1498456346176891  2.9203337602832682
  5.8662153799841263  1.6087197027293616  0.3034990086386486
