Co Na O  P 
 1.0000000000000000
    10.3843780159999994    0.0000399280000000   -0.0000245450000000
    -0.0000103350000000    6.2454426559999998   -0.0000768580000000
    -0.0000127180000000    0.0000588520000000    4.9997598520000004
 Co  Na  O   P  
   4   4  16   4
Cartesian
  3.1852138286751006  1.4170051209510235  5.1576678368634310
  2.3058011236791294  4.5312676691732694  2.2202509651728057
  7.6970069301060606  4.5539987448445620 -0.1211258797700323
  8.2789499055040601  1.4540075466416895  2.7394447389899450
 -0.0849281746016119 -0.0030574072899600  4.9069245048868924
  4.6589790842295331  6.8080440846299117  2.3114511869244398
 10.7339706591626687  3.1475268810767232  5.1876399931492587
  5.0110377826181152  3.0797783314542246  2.1939355492706425
  0.9228564559636196  1.7053728954138019  4.1592516987117403
  3.7724566179652239  3.8807383623821350  1.0988496075750431
  9.2042485959948834  4.3097698397127600  1.3045292958890427
  6.5147339498466188  2.0483800288679110  3.5965684179031725
  4.6390510218588501  1.6560676561977172  1.2011231571234209
  0.1467052401103868  4.8729621045712186  3.1869627368028377
  5.4123120965123013  4.9936412080166122  4.3104700225452275
 10.0142924408604177  1.7590709790940431  2.1009131666601761
  1.7347724120057075  0.3389070415247907  1.8978432436764539
  2.9517218701477614  5.6594371368543426  3.6064358128539729
  8.9798448651235709  3.2004984888717396  3.2833020541452096
  7.6933922626088744  3.3576222837150445  0.8176941366655128
  8.1863960792326012  5.4840489875319101  3.7594176659331713
  6.6833655036211432  0.4168317187640942  0.3870142097019700
  1.6681286415602961  2.8963573097229807  1.7732847133229086
  3.4641592659006384  3.6957618090074784  4.3467447991334414
  1.1214349323641299  1.8492918715920348  2.3643037059441774
  4.3132108819254684  4.5133957615164189  4.9266721845900268
  8.9151929582234910  4.1651567894201804  2.9296188157359135
  5.9512881944791447  1.6230868359030306  0.2930489482659999
