Fe Na O  P 
 1.0000000000000000
    10.5670235790000007   -0.0000065140000000    0.0000475500000000
    -0.0000368490000000    6.2991408849999999   -0.0000627890000000
     0.0000223900000000    0.0000725210000000    5.0175152210000000
 Fe  Na  O   P  
   4   4  16   4
Cartesian
  3.2075386851872825  1.4647639834590875  5.0760055770707968
  2.3061274259511038  4.6061079461344496  2.2387110042441978
  7.7470031642432318  4.6247773729747621 -0.0379174235877404
  8.4123650100770693  1.4871203214359598  2.7494289111200141
 -0.0672341320071640  6.2997096434318971 -0.0669392954309183
  4.8830668749099422  0.4139358397213144  2.3725896519704963
  0.2638273455341367  3.1618301864737304  0.1183500275087758
  5.1430023470640451  3.1283692945953838  2.2811706367252906
  0.9872833123413931  1.6866076497188216  4.0503631213381972
  3.9267269778873808  4.1348885934655950  1.1206145821132334
  9.3921344756395868  4.4392843749955224  1.3137097912826710
  6.5768926111660537  1.9399853462689338  3.6730928102760436
  4.8169854248442130  1.6349829429732319  1.1297834202896022
  0.1917675358051795  4.8646515277817315  3.2658702221959235
  5.5101893975085261  4.9440968043960805  4.2698726345716276
 10.2111386866332001  1.7317966467062487  1.9739837711620882
  1.7849628431780420  0.3438592007348955  1.8335524903374467
  3.0976082929212856  5.7920624386495865  3.7625224817689600
  9.0248628429233424  3.2911208025947376  3.3174380071529206
  7.6402455750381906  3.2204678324156997  0.8303046709109854
  8.4394192112844291  5.6341926325009331  3.6726998467257403
  6.8780504418249091  0.4177097076882315  0.5128406949525496
  1.7411579947391813  2.8696706805989631  1.7610426180665608
  3.5224127457281655  3.6702507391935679  4.3148757446184325
  1.1222716743022230  1.8007741344225658  2.3343927139739504
  4.3416318983352920  4.5939547134448713  4.8820940507289077
  9.1766342574922923  4.3486437338764556  2.9015237361433028
  6.1352818742999826  1.6175070862293539  0.3027472821241759
